# Solution for model count
# Objective value = 9
z#1 0
z#2 0
z#3 1
z#4 0
z#5 0
z#6 0
z#7 0
z#8 1
z#9 0
z#10 0
z#11 1
z#12 1
z#13 0
z#14 1
z#15 0
z#16 1
z#17 1
z#18 1
z#19 0
z#20 1
z#21 0
z#22 0
z#23 0
z#24 0
x#24 0
x#23 0
x#22 0
x#21 0
x#20 1153
x#19 0
x#18 1271
x#17 278
x#16 2121
x#15 0
x#14 225
x#13 0
x#12 620
x#11 1809
x#10 0
x#9 0
x#8 436
x#7 0
x#6 0
x#5 0
x#4 0
x#3 2087
x#2 0
x#1 0
